200
1000
626
624
624
624
622
620
615
613
608
607
601
596
595
595
595
591
591
586
583
582
582
579
579
573
572
569
567
566
557
556
554
554
553
550
550
546
545
545
543
540
539
535
535
532
527
526
520
515
513
509
506
504
502
500
497
492
491
490
489
485
484
484
478
474
456
452
450
448
441
441
440
436
428
427
424
422
422
420
419
414
413
410
410
408
406
405
396
388
386
378
369
366
365
364
345
345
341
337
335
330
324
323
320
316
312
303
302
296
293
291
288
286
284
282
282
282
282
279
272
271
265
258
256
254
250
249
248
240
234
232
231
226
225
225
221
217
216
212
208
206
204
201
200
200
200
199
194
194
189
189
185
184
181
180
177
176
171
163
160
160
157
155
149
141
137
132
130
127
126
125
125
122
121
120
118
114
114
112
111
103
94
93
88
86
80
77
77
77
73
69
62
57
55
55
55
51
49
47
44
39
